342 5
10 10 10 10 10 

0 0 0 0 0 0 5 2 14 26 38 50 
0 0 0 0 0 0 6 3 6 7 8 11 12 
8 1 0 0 0 0 3 10 5 4 
4 4 0 0 0 0 1 9 
3 2 0 0 0 0 1 9 
8 3 0 0 0 0 1 9 
4 1 0 0 0 0 1 9 
9 4 0 0 0 0 1 9 
5 3 0 0 0 0 2 13 289 
10 3 0 0 0 0 1 13 
5 1 0 0 0 0 1 13 
2 3 0 0 0 0 1 13 
0 0 0 0 0 0 1 62 
0 0 0 0 0 0 5 15 16 17 19 24 
6 0 0 0 0 1 3 22 20 18 
6 0 0 0 0 4 2 23 20 
5 0 0 0 0 2 2 22 20 
7 0 0 0 0 2 1 21 
3 0 0 0 0 2 1 21 
5 0 0 0 0 1 2 25 31 
1 0 0 0 0 4 1 25 
1 0 0 0 0 2 1 25 
5 0 0 0 0 1 1 25 
9 0 0 0 0 6 1 25 
0 0 0 0 0 0 1 62 
0 0 0 0 0 0 4 27 28 31 32 
4 0 1 0 0 0 3 36 30 29 
6 0 2 0 0 0 4 36 33 29 98 
1 0 4 0 0 0 2 35 34 
6 0 1 0 0 0 1 33 
3 0 5 0 0 0 1 34 
6 0 3 0 0 0 1 33 
3 0 2 0 0 0 1 37 
6 0 2 0 0 0 1 37 
9 0 3 0 0 0 1 37 
6 0 2 0 0 0 1 37 
0 0 0 0 0 0 1 62 
0 0 0 0 0 0 5 39 41 42 47 48 
8 0 1 0 0 0 2 43 40 
1 0 3 0 0 0 3 46 45 44 
10 0 2 0 0 0 3 46 43 130 
2 0 2 0 0 0 2 45 44 
1 0 3 0 0 0 1 44 
1 0 4 0 0 0 1 49 
1 0 4 0 0 0 1 49 
10 0 3 0 0 0 1 49 
9 0 1 0 0 0 1 49 
1 0 2 0 0 0 1 49 
0 0 0 0 0 0 1 62 
0 0 0 0 0 0 5 51 52 53 54 55 
9 0 0 1 0 0 3 60 58 57 
9 0 0 1 0 0 3 60 57 56 
9 0 0 2 0 0 2 60 56 
2 0 0 4 0 0 2 56 185 
9 0 0 3 0 0 1 56 
3 0 0 4 0 0 1 59 
6 0 0 3 0 0 1 59 
6 0 0 3 0 0 1 59 
4 0 0 2 0 0 1 61 
7 0 0 2 0 0 1 61 
0 0 0 0 0 0 1 62 
0 0 0 0 0 0 5 63 95 127 139 171 
0 0 0 0 0 0 6 64 65 66 68 72 93 
10 0 1 0 1 1 4 75 70 69 67 
2 0 1 0 3 1 6 89 88 87 75 74 71 
1 0 1 0 3 6 6 92 89 86 84 81 70 
10 0 2 0 1 1 4 88 84 81 71 
9 0 1 0 3 2 4 91 89 74 71 
10 0 1 0 2 3 4 85 76 73 337 
4 0 2 0 3 4 5 88 87 85 80 77 
3 0 2 0 3 1 2 85 73 
7 0 4 0 1 2 3 90 76 75 
6 0 3 0 2 2 3 86 80 77 
1 0 2 0 5 2 1 77 
7 0 6 0 5 1 2 84 79 
1 0 1 0 3 2 2 84 80 
1 0 4 0 2 2 1 78 
4 0 4 0 3 3 1 79 
5 0 1 0 1 2 1 82 
10 0 3 0 4 4 1 83 
7 0 2 0 1 3 1 87 
7 0 3 0 1 2 1 94 
10 0 2 0 4 4 1 94 
2 0 2 0 1 1 1 94 
8 0 3 0 3 3 1 94 
3 0 2 0 2 1 1 94 
10 0 3 0 4 3 1 94 
1 0 2 0 2 3 1 94 
1 0 3 0 2 2 1 94 
3 0 3 0 1 3 1 94 
10 0 2 0 4 5 1 94 
6 0 4 0 2 4 1 94 
5 0 5 0 3 2 1 94 
0 0 0 0 0 0 1 317 
0 0 0 0 0 0 6 96 97 98 99 100 101 
10 0 1 0 1 1 3 104 103 102 
6 0 2 0 3 2 4 113 111 104 102 
6 0 1 0 3 1 3 111 104 102 
1 0 2 0 2 1 2 103 102 
8 0 2 0 2 5 3 106 105 103 
2 0 6 0 4 4 3 107 105 103 
1 0 3 0 5 2 4 109 108 106 105 
5 0 3 0 2 2 4 113 111 109 108 
4 0 1 0 2 3 2 110 107 
3 0 1 0 4 2 3 115 114 112 
10 0 2 0 4 4 3 115 114 112 
2 0 1 0 4 2 3 115 114 112 
5 0 2 0 2 3 2 115 112 
4 0 2 0 2 1 2 115 112 
10 0 4 0 2 2 2 115 112 
10 0 8 0 2 3 1 112 
6 0 3 0 2 3 4 125 122 117 116 
5 0 1 0 3 1 2 116 114 
10 0 2 0 2 4 5 125 122 120 119 118 
4 0 1 0 2 3 4 122 119 118 116 
3 0 3 0 3 4 2 124 120 
9 0 4 0 3 2 2 119 118 
8 0 3 0 3 4 2 124 123 
5 0 3 0 5 2 2 124 123 
1 0 1 0 1 3 1 121 
8 0 3 0 1 1 1 123 
5 0 3 0 1 3 2 124 141 
10 0 2 0 1 1 1 126 
1 0 2 0 2 3 1 126 
5 0 3 0 2 3 1 126 
0 0 0 0 0 0 1 317 
0 0 0 0 0 0 7 128 129 131 132 135 136 137 
2 1 0 0 0 0 2 134 130 
7 2 0 0 0 0 2 134 133 
4 3 0 0 0 0 1 133 
10 1 0 0 0 0 1 133 
10 2 0 0 0 0 1 133 
7 1 0 0 0 0 1 138 
2 4 0 0 0 0 2 138 219 
3 2 0 0 0 0 1 138 
7 4 0 0 0 0 1 138 
8 5 0 0 0 0 1 138 
0 0 0 0 0 0 4 203 215 237 259 
0 0 0 0 0 0 7 140 142 144 146 150 168 169 
7 1 1 0 0 1 4 161 149 143 141 
1 1 1 0 0 1 3 160 154 145 
7 2 2 0 0 2 5 167 166 162 156 147 
8 1 4 0 0 1 4 164 163 156 147 
2 4 3 0 0 2 4 162 161 156 147 
2 3 2 0 0 5 2 156 147 
4 4 2 0 0 2 5 165 162 159 152 149 
3 2 1 0 0 1 3 158 153 148 
2 2 2 0 0 2 1 151 
8 5 4 0 0 2 3 160 156 228 
3 2 3 0 0 3 2 163 161 
5 1 2 0 0 2 1 152 
4 4 4 0 0 1 1 155 
1 2 3 0 0 2 1 157 
3 2 2 0 0 2 1 159 
6 1 3 0 0 4 1 170 
7 3 1 0 0 3 1 170 
5 4 3 0 0 2 1 170 
5 3 3 0 0 3 1 170 
3 1 2 0 0 1 1 170 
5 3 1 0 0 5 1 170 
3 5 2 0 0 5 1 170 
2 3 2 0 0 3 1 170 
7 4 4 0 0 3 1 170 
2 2 2 0 0 2 1 170 
6 1 2 0 0 3 1 170 
2 3 3 0 0 2 1 170 
10 2 3 0 0 1 1 170 
8 3 5 0 0 4 1 170 
8 1 3 0 0 5 1 170 
0 0 0 0 0 0 1 317 
0 0 0 0 0 0 6 172 173 174 175 176 201 
7 1 0 1 0 1 5 184 180 179 178 177 
3 2 0 3 0 2 4 184 180 179 177 
2 3 0 2 0 6 4 200 180 179 177 
7 2 0 4 0 2 3 179 178 177 
3 3 0 3 0 3 2 199 178 
6 3 0 5 0 1 3 192 187 181 
2 3 0 2 0 1 3 198 185 182 
4 2 0 3 0 4 2 192 183 
9 1 0 1 0 4 5 197 195 192 191 186 
10 4 0 1 0 5 1 183 
2 1 0 1 0 2 1 183 
6 5 0 1 0 2 5 197 196 195 191 188 
6 3 0 2 0 1 4 196 195 191 188 
8 4 0 1 0 2 4 197 195 194 188 
1 3 0 4 0 1 2 198 188 
7 2 0 1 0 4 3 198 196 194 
7 1 0 1 0 1 1 189 
4 1 0 3 0 3 1 190 
3 2 0 6 0 1 1 193 
5 1 0 5 0 4 1 194 
5 4 0 3 0 1 1 198 
4 4 0 1 0 1 1 202 
7 2 0 4 0 5 1 202 
10 3 0 5 0 5 1 202 
1 2 0 3 0 2 1 202 
6 3 0 2 0 3 1 202 
5 3 0 4 0 3 1 202 
2 3 0 1 0 1 1 202 
3 2 0 1 0 2 1 202 
8 2 0 1 0 2 1 202 
0 0 0 0 0 0 1 317 
0 0 0 0 0 0 4 204 205 207 208 
4 1 0 0 0 0 2 209 206 
8 3 0 0 0 0 3 213 212 210 
2 4 0 0 0 0 3 213 212 211 
5 1 0 0 0 0 2 213 209 
10 2 0 0 0 0 2 212 209 
6 4 0 0 0 0 1 211 
8 3 0 0 0 0 1 211 
10 1 0 0 0 0 1 214 
1 2 0 0 0 0 1 214 
9 4 0 0 0 0 1 214 
0 0 0 0 0 0 3 281 293 305 
0 0 0 0 0 0 9 216 217 218 220 221 222 227 228 235 
9 0 0 1 0 1 4 234 232 231 219 
8 0 0 3 0 3 5 233 232 230 226 223 
4 0 0 3 0 2 3 232 230 225 
5 0 0 1 0 2 2 230 224 
8 0 0 3 0 4 3 231 230 229 
7 0 0 1 0 3 2 233 225 
2 0 0 2 0 4 1 223 
9 0 0 2 0 2 1 225 
2 0 0 4 0 2 1 225 
10 0 0 3 0 4 1 229 
6 0 0 2 0 1 1 229 
2 0 0 2 0 3 1 231 
9 0 0 3 0 3 1 229 
6 0 0 4 0 3 1 236 
5 0 0 1 0 2 1 236 
6 0 0 4 0 2 1 236 
2 0 0 6 0 3 1 236 
7 0 0 2 0 1 1 236 
10 0 0 1 0 1 1 236 
8 0 0 2 0 4 1 236 
0 0 0 0 0 0 1 317 
0 0 0 0 0 0 9 238 239 240 243 244 245 246 248 257 
4 1 1 0 0 0 6 256 255 254 253 251 247 
8 4 2 0 0 0 3 252 251 241 
4 2 3 0 0 0 2 252 242 
3 3 4 0 0 0 3 254 253 249 
6 6 4 0 0 0 2 251 247 
6 2 3 0 0 0 2 252 247 
6 2 2 0 0 0 2 253 249 
4 3 6 0 0 0 2 255 252 
6 5 3 0 0 0 2 251 250 
5 1 4 0 0 0 1 249 
4 3 1 0 0 0 1 249 
5 3 1 0 0 0 1 250 
2 3 2 0 0 0 1 258 
5 2 2 0 0 0 1 258 
9 1 2 0 0 0 1 258 
9 2 1 0 0 0 1 258 
4 1 2 0 0 0 1 258 
9 2 1 0 0 0 1 258 
2 2 2 0 0 0 1 258 
7 2 4 0 0 0 1 258 
0 0 0 0 0 0 1 317 
0 0 0 0 0 0 6 260 261 262 263 264 265 
6 1 0 1 0 0 5 274 270 268 267 266 
2 1 0 3 0 0 4 271 270 269 268 
6 3 0 1 0 0 3 270 267 266 
9 3 0 4 0 0 3 271 270 266 
7 3 0 3 0 0 5 279 278 277 271 269 
1 4 0 2 0 0 2 270 266 
1 1 0 3 0 0 5 279 278 277 273 272 
1 2 0 3 0 0 3 278 277 271 
3 6 0 1 0 0 3 279 278 272 
7 2 0 2 0 0 2 273 272 
10 2 0 1 0 0 3 277 276 275 
4 2 0 2 0 0 1 272 
1 1 0 5 0 0 2 276 275 
8 3 0 2 0 0 2 276 275 
1 1 0 1 0 0 1 275 
5 3 0 2 0 0 1 280 
5 3 0 2 0 0 1 280 
6 3 0 4 0 0 1 280 
1 3 0 4 0 0 1 280 
3 3 0 4 0 0 1 280 
0 0 0 0 0 0 1 317 
0 0 0 0 0 0 5 282 283 285 290 291 
6 1 0 0 0 0 4 289 288 286 284 
6 2 0 0 0 0 2 287 286 
4 3 0 0 0 0 1 287 
3 4 0 0 0 0 1 286 
2 2 0 0 0 0 1 292 
1 1 0 0 0 0 1 292 
6 4 0 0 0 0 1 292 
3 4 0 0 0 0 1 292 
10 1 0 0 0 0 1 292 
8 3 0 0 0 0 1 292 
0 0 0 0 0 0 1 317 
0 0 0 0 0 0 6 294 295 297 301 302 303 
10 0 0 1 0 0 2 300 296 
8 0 0 3 0 0 2 299 298 
5 0 0 4 0 0 1 298 
2 0 0 2 0 0 1 298 
2 0 0 2 0 0 1 304 
3 0 0 5 0 0 1 304 
2 0 0 1 0 0 1 304 
10 0 0 1 0 0 1 304 
4 0 0 5 0 0 1 304 
4 0 0 1 0 0 1 304 
0 0 0 0 0 0 1 317 
0 0 0 0 0 0 5 306 307 308 309 315 
10 0 0 0 0 1 3 314 313 310 
1 0 0 0 0 1 3 313 312 311 
6 0 0 0 0 2 2 312 311 
2 0 0 0 0 1 2 312 311 
1 0 0 0 0 7 1 311 
6 0 0 0 0 2 1 316 
9 0 0 0 0 2 1 316 
9 0 0 0 0 1 1 316 
6 0 0 0 0 3 1 316 
4 0 0 0 0 5 1 316 
0 0 0 0 0 0 1 317 
0 0 0 0 0 0 2 318 330 
0 0 0 0 0 0 5 319 320 321 323 328 
6 0 0 1 0 0 2 327 322 
9 0 0 2 0 0 3 327 326 325 
4 0 0 3 0 0 2 326 324 
6 0 0 1 0 0 2 326 325 
2 0 0 3 0 0 1 324 
9 0 0 1 0 0 1 325 
4 0 0 2 0 0 1 329 
9 0 0 5 0 0 1 329 
7 0 0 3 0 0 1 329 
2 0 0 4 0 0 1 329 
0 0 0 0 0 0 1 342 
0 0 0 0 0 0 5 331 332 333 335 337 
8 1 0 0 0 0 2 336 334 
10 3 0 0 0 0 2 336 334 
6 2 0 0 0 0 3 340 338 336 
9 3 0 0 0 0 2 340 338 
3 2 0 0 0 0 2 339 338 
6 2 0 0 0 0 1 339 
5 3 0 0 0 0 1 338 
1 4 0 0 0 0 1 341 
1 2 0 0 0 0 1 341 
7 3 0 0 0 0 1 341 
0 0 0 0 0 0 1 342 
0 0 0 0 0 0 0 
